(set-option :produce-models true); benchmark generated from python API
(set-info :status unknown)
(declare-fun l_1_0_9 () Real)
(declare-fun l_1_0_8 () Real)
(declare-fun l_1_0_7 () Real)
(declare-fun l_1_0_6 () Real)
(declare-fun l_1_0_5 () Real)
(declare-fun l_1_0_4 () Real)
(declare-fun l_1_0_3 () Real)
(declare-fun l_1_0_2 () Real)
(declare-fun l_1_0_1 () Real)
(declare-fun _a_0_ () Real)
(declare-fun l_1_0_12 () Real)
(declare-fun _a_1_ () Real)
(declare-fun l_1_0_14 () Real)
(declare-fun l_1_0_13 () Real)
(declare-fun _a_2_ () Real)
(declare-fun l_1_0_11 () Real)
(declare-fun l_1_0_10 () Real)
(declare-fun _a_3_ () Real)
(declare-fun l_1_1_9 () Real)
(declare-fun l_1_1_8 () Real)
(declare-fun l_1_1_6 () Real)
(declare-fun l_1_1_5 () Real)
(declare-fun l_1_1_2 () Real)
(declare-fun l_1_1_15 () Real)
(declare-fun l_1_1_14 () Real)
(declare-fun l_1_1_12 () Real)
(declare-fun l_1_1_10 () Real)
(declare-fun l_1_1_1 () Real)
(declare-fun l_1_1_7 () Real)
(declare-fun l_1_1_4 () Real)
(declare-fun l_1_1_3 () Real)
(declare-fun l_1_1_13 () Real)
(declare-fun l_1_1_11 () Real)
(declare-fun l_1_1_16 () Real)
(declare-fun l_1_1_18 () Real)
(declare-fun l_1_1_20 () Real)
(declare-fun l_1_1_19 () Real)
(declare-fun l_1_1_17 () Real)
(declare-fun l_1_2_7 () Real)
(declare-fun l_1_2_5 () Real)
(declare-fun l_1_2_4 () Real)
(declare-fun l_1_2_2 () Real)
(declare-fun l_1_2_15 () Real)
(declare-fun l_1_2_14 () Real)
(declare-fun l_1_2_13 () Real)
(declare-fun l_1_2_12 () Real)
(declare-fun l_1_2_11 () Real)
(declare-fun l_1_2_1 () Real)
(declare-fun l_1_2_9 () Real)
(declare-fun l_1_2_8 () Real)
(declare-fun l_1_2_6 () Real)
(declare-fun l_1_2_3 () Real)
(declare-fun l_1_2_10 () Real)
(declare-fun l_1_2_18 () Real)
(declare-fun l_1_2_16 () Real)
(declare-fun l_1_2_20 () Real)
(declare-fun l_1_2_19 () Real)
(declare-fun l_1_2_17 () Real)
(assert
 (let ((?x41 (* l_1_0_9 l_1_0_9)))
 (let ((?x1553 (* 361.0 l_1_0_7)))
 (let ((?x47 (* 19.0 l_1_0_6)))
 (let ((?x50 (* 19.0 l_1_0_5)))
 (let ((?x1556 (- (+ (- (- _a_0_ l_1_0_1) l_1_0_2) (* 19.0 l_1_0_3)) l_1_0_4)))
 (= (- (- (- (+ (+ ?x1556 ?x50) ?x47) ?x1553) l_1_0_8) ?x41) 0.0)))))))
(assert
 (let ((?x1087 (* 152.0 l_1_0_7)))
 (let ((?x1071 (* 4.0 l_1_0_6)))
 (let ((?x1069 (* 4.0 l_1_0_5)))
 (let ((?x825 (* 4.0 l_1_0_3)))
 (let ((?x1072 (- (- (- (- _a_1_ (* (* 2.0 l_1_0_12) l_1_0_9)) ?x825) ?x1069) ?x1071)))
 (= (+ ?x1072 ?x1087) 0.0)))))))
(assert
 (let ((?x1396 (* 54.0 l_1_0_7)))
 (let ((?x1390 (* l_1_0_14 l_1_0_14)))
 (let ((?x1391 (- (- (- _a_2_ (* l_1_0_12 l_1_0_12)) (* l_1_0_13 l_1_0_13)) ?x1390)))
 (= (- (+ (+ (+ ?x1391 l_1_0_3) l_1_0_5) l_1_0_6) ?x1396) 0.0)))))
(assert
 (let ((?x1350 (* 102.0 l_1_0_7)))
 (let ((?x1346 (+ (- (- _a_3_ (* l_1_0_10 l_1_0_10)) (* l_1_0_11 l_1_0_11)) l_1_0_3)))
 (= (- (+ (+ ?x1346 l_1_0_5) l_1_0_6) ?x1350) 0.0))))
(assert
 (let ((?x1278 (* 8.0 l_1_0_6)))
 (let ((?x1276 (* 8.0 l_1_0_5)))
 (let ((?x1279 (- (- (- (* (* (- 2.0) l_1_0_10) l_1_0_9) (* 8.0 l_1_0_3)) ?x1276) ?x1278)))
 (= (+ ?x1279 (* 304.0 l_1_0_7)) 0.0)))))
(assert
 (= (- l_1_0_7) 0.0))
(assert
 (= (* 8.0 l_1_0_7) 0.0))
(assert
 (= (* (- 2.0) l_1_0_7) 0.0))
(assert
 (= (* 16.0 l_1_0_7) 0.0))
(assert
 (= (* 8.0 l_1_0_7) 0.0))
(assert
 (let ((?x1157 (* 64.0 l_1_0_7)))
 (let ((?x1004 (- (* (* (- 2.0) l_1_0_10) l_1_0_12) (* (* 2.0 l_1_0_11) l_1_0_13))))
 (= (- ?x1004 ?x1157) 0.0))))
(assert
 (= (- l_1_0_7) 0.0))
(assert
 (= (* 16.0 l_1_0_7) 0.0))
(assert
 (>= l_1_0_1 0.0))
(assert
 (>= l_1_0_2 0.0))
(assert
 (>= l_1_0_3 0.0))
(assert
 (>= l_1_0_4 0.0))
(assert
 (>= l_1_0_5 0.0))
(assert
 (>= l_1_0_6 0.0))
(assert
 (>= l_1_0_7 0.0))
(assert
 (>= l_1_0_8 0.0))
(assert
 (>= l_1_0_9 0.0))
(assert
 (>= l_1_0_11 0.0))
(assert
 (>= l_1_0_14 0.0))
(assert
 (let ((?x1002 (* 16.0 l_1_1_9)))
 (let ((?x1045 (* 256.0 l_1_1_5)))
 (let ((?x1040 (* l_1_1_15 l_1_1_15)))
 (let ((?x1038 (* 16.0 l_1_1_12)))
 (let ((?x1036 (* 16.0 l_1_1_10)))
 (let ((?x1101 (* _a_0_ l_1_1_4)))
 (let ((?x1099 (* _a_0_ l_1_1_3)))
 (let ((?x1102 (- (- (- (* (* (- 16.0) _a_0_) l_1_1_11) (* _a_0_ l_1_1_13)) ?x1099) ?x1101)))
 (let ((?x1007 (- (- (- (- ?x1102 (* (* 16.0 _a_0_) l_1_1_7)) l_1_1_1) ?x1036) ?x1038)))
 (let ((?x1000 (- (- (- (- (- ?x1007 l_1_1_14) ?x1040) l_1_1_2) ?x1045) (* (* l_1_1_6 _a_0_) _a_0_))))
 (= (+ (- (- ?x1000 l_1_1_8) ?x1002) 4.0) 0.0))))))))))))
(assert
 (let ((?x928 (* 8.0 l_1_1_9)))
 (let ((?x1045 (* 256.0 l_1_1_5)))
 (let ((?x924 (* 8.0 l_1_1_12)))
 (let ((?x944 (* 8.0 l_1_1_10)))
 (let ((?x943 (+ (* (* 8.0 _a_0_) l_1_1_11) (* (* 8.0 _a_0_) l_1_1_7))))
 (let ((?x927 (+ (- (+ (+ ?x943 ?x944) ?x924) (* (* 2.0 l_1_1_15) l_1_1_16)) ?x1045)))
 (= (- (+ ?x927 ?x928) 1.0) 0.0))))))))
(assert
 (let ((?x638 (* 128.0 l_1_1_5)))
 (let ((?x806 (* 4.0 l_1_1_12)))
 (let ((?x716 (* 4.0 l_1_1_10)))
 (let ((?x798 (* _a_1_ l_1_1_4)))
 (let ((?x797 (* _a_1_ l_1_1_3)))
 (let ((?x838 (* _a_1_ l_1_1_13)))
 (let ((?x799 (- (- (- (* (* (* (- 2.0) _a_0_) _a_1_) l_1_1_6) ?x838) ?x797) ?x798)))
 (let ((?x805 (- (+ ?x799 ?x716) (* l_1_1_11 (+ (* (- 4.0) _a_0_) (* 16.0 _a_1_))))))
 (let ((?x757 (- (+ (- (+ ?x805 ?x806) (* (* 2.0 l_1_1_15) l_1_1_18)) ?x638) (* l_1_1_7 (+ (* (- 4.0) _a_0_) (* 16.0 _a_1_))))))
 (= (+ ?x757 (* 4.0 l_1_1_9)) 0.0)))))))))))
(assert
 (let ((?x517 (* 48.0 l_1_1_5)))
 (let ((?x514 (* l_1_1_20 l_1_1_20)))
 (let ((?x512 (* l_1_1_19 l_1_1_19)))
 (let ((?x510 (* l_1_1_18 l_1_1_18)))
 (let ((?x582 (* _a_2_ l_1_1_4)))
 (let ((?x503 (- (- (- (* (- _a_2_) l_1_1_13) (* _a_2_ l_1_1_3)) ?x582) l_1_1_10)))
 (let ((?x509 (- ?x503 (* l_1_1_11 (+ (- _a_0_ (* 4.0 _a_1_)) (* 16.0 _a_2_))))))
 (let ((?x469 (- (- (- (- (- (- ?x509 l_1_1_12) ?x510) ?x512) ?x514) ?x517) (* l_1_1_6 (+ (* (* 2.0 _a_0_) _a_2_) (* _a_1_ _a_1_))))))
 (let ((?x472 (- ?x469 (* l_1_1_7 (+ (- _a_0_ (* 4.0 _a_1_)) (* 16.0 _a_2_))))))
 (= (- ?x472 l_1_1_9) 0.0)))))))))))
(assert
 (let ((?x217 (* 96.0 l_1_1_5)))
 (let ((?x215 (* l_1_1_17 l_1_1_17)))
 (let ((?x97 (* l_1_1_16 l_1_1_16)))
 (let ((?x269 (* _a_3_ l_1_1_4)))
 (let ((?x267 (* _a_3_ l_1_1_3)))
 (let ((?x265 (* _a_3_ l_1_1_13)))
 (let ((?x142 (- (- (- (* (* (* (- 2.0) _a_0_) _a_3_) l_1_1_6) ?x265) ?x267) ?x269)))
 (let ((?x18 (- (- (- ?x142 l_1_1_10) (* l_1_1_11 (+ _a_0_ (* 16.0 _a_3_)))) l_1_1_12)))
 (let ((?x88 (- (- (- (- ?x18 ?x97) ?x215) ?x217) (* l_1_1_7 (+ _a_0_ (* 16.0 _a_3_))))))
 (= (- ?x88 l_1_1_9) 0.0)))))))))))
(assert
 (let ((?x1423 (- (- (- (* (- _a_2_) l_1_1_11) (* _a_2_ l_1_1_7)) l_1_1_5) (* (* l_1_1_6 _a_2_) _a_2_))))
 (= ?x1423 0.0)))
(assert
 (let ((?x908 (* 8.0 l_1_1_5)))
 (let ((?x907 (- (* (* (* (- 2.0) _a_1_) _a_2_) l_1_1_6) (* l_1_1_11 (- _a_1_ (* 4.0 _a_2_))))))
 (= (- (+ ?x907 ?x908) (* l_1_1_7 (- _a_1_ (* 4.0 _a_2_)))) 0.0))))
(assert
 (let ((?x481 (* 2.0 l_1_1_5)))
 (let ((?x480 (- (* (* (* (- 2.0) _a_2_) _a_3_) l_1_1_6) (* l_1_1_11 (+ _a_2_ _a_3_)))))
 (= (- (- ?x480 ?x481) (* l_1_1_7 (+ _a_2_ _a_3_))) 0.0))))
(assert
 (let ((?x733 (* 16.0 l_1_1_5)))
 (let ((?x735 (+ (* (* 8.0 _a_2_) l_1_1_11) (* (* 8.0 _a_2_) l_1_1_7))))
 (= (+ ?x735 ?x733) 0.0))))
(assert
 (let ((?x908 (* 8.0 l_1_1_5)))
 (let ((?x600 (- (* (* (* (- 2.0) _a_1_) _a_3_) l_1_1_6) (* l_1_1_11 (- _a_1_ (* 4.0 _a_3_))))))
 (= (- (+ ?x600 ?x908) (* l_1_1_7 (- _a_1_ (* 4.0 _a_3_)))) 0.0))))
(assert
 (let ((?x688 (* 64.0 l_1_1_5)))
 (let ((?x675 (+ (* (* 8.0 _a_1_) l_1_1_11) (* (* 8.0 _a_1_) l_1_1_7))))
 (let ((?x694 (- (- ?x675 (* (* 2.0 l_1_1_16) l_1_1_18)) (* (* 2.0 l_1_1_17) l_1_1_19))))
 (= (- ?x694 ?x688) 0.0)))))
(assert
 (let ((?x1208 (- (- (- (* (- _a_3_) l_1_1_11) (* _a_3_ l_1_1_7)) l_1_1_5) (* (* l_1_1_6 _a_3_) _a_3_))))
 (= ?x1208 0.0)))
(assert
 (let ((?x733 (* 16.0 l_1_1_5)))
 (let ((?x202 (+ (* (* 8.0 _a_3_) l_1_1_11) (* (* 8.0 _a_3_) l_1_1_7))))
 (= (+ ?x202 ?x733) 0.0))))
(assert
 (>= l_1_1_1 0.0))
(assert
 (>= l_1_1_2 0.0))
(assert
 (>= l_1_1_3 0.0))
(assert
 (>= l_1_1_4 0.0))
(assert
 (>= l_1_1_5 0.0))
(assert
 (>= l_1_1_6 0.0))
(assert
 (>= l_1_1_7 0.0))
(assert
 (>= l_1_1_8 0.0))
(assert
 (>= l_1_1_9 0.0))
(assert
 (>= l_1_1_10 0.0))
(assert
 (>= l_1_1_11 0.0))
(assert
 (>= l_1_1_12 0.0))
(assert
 (>= l_1_1_13 0.0))
(assert
 (>= l_1_1_14 0.0))
(assert
 (>= l_1_1_15 0.0))
(assert
 (>= l_1_1_17 0.0))
(assert
 (>= l_1_1_20 0.0))
(assert
 (let ((?x813 (* 256.0 l_1_2_7)))
 (let ((?x1188 (* 16.0 l_1_2_4)))
 (let ((?x894 (* l_1_2_15 l_1_2_15)))
 (let ((?x886 (* 16.0 l_1_2_13)))
 (let ((?x605 (* 16.0 l_1_2_1)))
 (let ((?x593 (* _a_0_ l_1_2_9)))
 (let ((?x585 (* _a_0_ l_1_2_6)))
 (let ((?x586 (- (+ (* (- _a_0_) l_1_2_10) (* (* 16.0 _a_0_) l_1_2_3)) ?x585)))
 (let ((?x840 (+ (+ (- (+ ?x586 (* (* 16.0 _a_0_) l_1_2_8)) ?x593) _a_0_) ?x605)))
 (let ((?x1186 (- (- (- (+ (- (- ?x840 l_1_2_11) l_1_2_12) ?x886) l_1_2_14) ?x894) l_1_2_2)))
 (= (- (- (+ ?x1186 ?x1188) (* (* l_1_2_5 _a_0_) _a_0_)) ?x813) 0.0))))))))))))
(assert
 (let ((?x178 (* 128.0 l_1_2_7)))
 (let ((?x181 (* 4.0 l_1_2_4)))
 (let ((?x1356 (* 4.0 l_1_2_13)))
 (let ((?x524 (* 4.0 l_1_2_1)))
 (let ((?x450 (* _a_1_ l_1_2_9)))
 (let ((?x1023 (* _a_1_ l_1_2_6)))
 (let ((?x698 (* _a_1_ l_1_2_10)))
 (let ((?x451 (- (- (- (* (* (* (- 2.0) _a_0_) _a_1_) l_1_2_5) ?x698) ?x1023) ?x450)))
 (let ((?x612 (- (- (- (+ ?x451 _a_1_) ?x524) ?x1356) (* (* 2.0 l_1_2_15) l_1_2_18))))
 (let ((?x184 (- (- ?x612 (* l_1_2_3 (- (* 4.0 _a_0_) (* 16.0 _a_1_)))) ?x181)))
 (let ((?x185 (- (+ ?x184 ?x178) (* l_1_2_8 (- (* 4.0 _a_0_) (* 16.0 _a_1_))))))
 (= ?x185 0.0)))))))))))))
(assert
 (let ((?x813 (* 256.0 l_1_2_7)))
 (let ((?x1428 (* 8.0 l_1_2_4)))
 (let ((?x601 (* 8.0 l_1_2_13)))
 (let ((?x892 (* 8.0 l_1_2_1)))
 (let ((?x890 (* (/ 1.0 10.0) _a_1_)))
 (let ((?x891 (+ (- (* (* (- 8.0) _a_0_) l_1_2_3) (* (* 8.0 _a_0_) l_1_2_8)) ?x890)))
 (let ((?x1429 (- (- (- (- ?x891 ?x892) ?x601) (* (* 2.0 l_1_2_15) l_1_2_16)) ?x1428)))
 (= (+ ?x1429 ?x813) 0.0)))))))))
(assert
 (let ((?x506 (* 16.0 _a_2_)))
 (let ((?x897 (- (+ (- _a_0_) (* 4.0 _a_1_)) ?x506)))
 (let ((?x1328 (* 48.0 l_1_2_7)))
 (let ((?x674 (* l_1_2_20 l_1_2_20)))
 (let ((?x1120 (* l_1_2_19 l_1_2_19)))
 (let ((?x895 (* l_1_2_18 l_1_2_18)))
 (let ((?x1479 (* (/ 1.0 100.0) _a_3_)))
 (let ((?x388 (* _a_2_ l_1_2_9)))
 (let ((?x390 (+ (- (- (* (- _a_2_) l_1_2_10) (* _a_2_ l_1_2_6)) ?x388) _a_2_)))
 (let ((?x673 (- (- (- (+ (+ (+ ?x390 ?x1479) l_1_2_1) l_1_2_13) ?x895) ?x1120) ?x674)))
 (let ((?x1327 (- (+ (- ?x673 (* l_1_2_3 ?x897)) l_1_2_4) (* l_1_2_5 (+ (* (* 2.0 _a_0_) _a_2_) (* _a_1_ _a_1_))))))
 (= (- (- ?x1327 ?x1328) (* l_1_2_8 ?x897)) 0.0)))))))))))))
(assert
 (let ((?x808 (* 64.0 l_1_2_7)))
 (let ((?x1030 (* (/ 11.0 50.0) _a_3_)))
 (let ((?x280 (* (/ 1.0 5.0) _a_2_)))
 (let ((?x1033 (+ (- (* (* (- 8.0) _a_1_) l_1_2_3) (* (* 8.0 _a_1_) l_1_2_8)) ?x280)))
 (let ((?x236 (- (- (- ?x1033 ?x1030) (* (* 2.0 l_1_2_16) l_1_2_18)) (* (* 2.0 l_1_2_17) l_1_2_19))))
 (= (- ?x236 ?x808) 0.0)))))))
(assert
 (let ((?x494 (* 96.0 l_1_2_7)))
 (let ((?x1192 (* l_1_2_17 l_1_2_17)))
 (let ((?x1056 (* l_1_2_16 l_1_2_16)))
 (let ((?x1058 (* (/ 121.0 100.0) _a_3_)))
 (let ((?x702 (* _a_3_ l_1_2_9)))
 (let ((?x140 (* _a_3_ l_1_2_6)))
 (let ((?x144 (* _a_3_ l_1_2_10)))
 (let ((?x139 (- (+ (* (* (* (- 2.0) _a_0_) _a_3_) l_1_2_5) (* (/ 1.0 100.0) _a_2_)) ?x144)))
 (let ((?x1196 (- (+ (+ (+ (- (- ?x139 ?x140) ?x702) ?x1058) l_1_2_1) l_1_2_13) ?x1056)))
 (let ((?x493 (+ (- (- ?x1196 ?x1192) (* l_1_2_3 (- (- _a_0_) (* 16.0 _a_3_)))) l_1_2_4)))
 (= (- (- ?x493 ?x494) (* l_1_2_8 (- (- _a_0_) (* 16.0 _a_3_)))) 0.0))))))))))))
(assert
 (let ((?x597 (* 2.0 l_1_2_7)))
 (let ((?x419 (- (- (* (* (* (- 2.0) _a_2_) _a_3_) l_1_2_5) (* (/ 11.0 50.0) _a_3_)) (* l_1_2_3 (- (- _a_2_) _a_3_)))))
 (= (- (- ?x419 ?x597) (* l_1_2_8 (- (- _a_2_) _a_3_))) 0.0))))
(assert
 (let ((?x1479 (* (/ 1.0 100.0) _a_3_)))
 (= ?x1479 0.0)))
(assert
 (= (* (/ 1.0 50.0) _a_3_) 0.0))
(assert
 (let ((?x793 (* 8.0 l_1_2_7)))
 (let ((?x792 (- (* (* (* (- 2.0) _a_1_) _a_2_) l_1_2_5) (* l_1_2_3 (+ (- _a_1_) (* 4.0 _a_2_))))))
 (= (- (+ ?x792 ?x793) (* l_1_2_8 (+ (- _a_1_) (* 4.0 _a_2_)))) 0.0))))
(assert
 (let ((?x316 (* _a_2_ l_1_2_8)))
 (let ((?x196 (* _a_2_ l_1_2_3)))
 (let ((?x187 (+ ?x196 ?x316)))
 (= (- (- ?x187 (* (* l_1_2_5 _a_2_) _a_2_)) l_1_2_7) 0.0)))))
(assert
 (let ((?x793 (* 8.0 l_1_2_7)))
 (let ((?x70 (- (* (* (* (- 2.0) _a_1_) _a_3_) l_1_2_5) (* l_1_2_3 (+ (- _a_1_) (* 4.0 _a_3_))))))
 (= (- (+ ?x70 ?x793) (* l_1_2_8 (+ (- _a_1_) (* 4.0 _a_3_)))) 0.0))))
(assert
 (let ((?x1597 (- (+ (* _a_3_ l_1_2_3) (* _a_3_ l_1_2_8)) (* (* l_1_2_5 _a_3_) _a_3_))))
 (= (- ?x1597 l_1_2_7) 0.0)))
(assert
 (let ((?x1612 (* 16.0 l_1_2_7)))
 (let ((?x1613 (+ (- (* (* (- 8.0) _a_2_) l_1_2_3) (* (* 8.0 _a_2_) l_1_2_8)) ?x1612)))
 (= ?x1613 0.0))))
(assert
 (let ((?x1612 (* 16.0 l_1_2_7)))
 (let ((?x1629 (+ (- (* (* (- 8.0) _a_3_) l_1_2_3) (* (* 8.0 _a_3_) l_1_2_8)) ?x1612)))
 (= ?x1629 0.0))))
(assert
 (>= l_1_2_1 0.0))
(assert
 (>= l_1_2_2 0.0))
(assert
 (>= l_1_2_3 0.0))
(assert
 (>= l_1_2_4 0.0))
(assert
 (>= l_1_2_5 0.0))
(assert
 (>= l_1_2_6 0.0))
(assert
 (>= l_1_2_7 0.0))
(assert
 (>= l_1_2_8 0.0))
(assert
 (>= l_1_2_9 0.0))
(assert
 (>= l_1_2_10 0.0))
(assert
 (>= l_1_2_11 0.0))
(assert
 (>= l_1_2_12 0.0))
(assert
 (>= l_1_2_13 0.0))
(assert
 (>= l_1_2_14 0.0))
(assert
 (>= l_1_2_15 0.0))
(assert
 (>= l_1_2_17 0.0))
(assert
 (>= l_1_2_20 0.0))
(check-sat)
(get-model)